15
3 0 1
4 2 10
4 3 5
5 1 10
5 2 6
5 3 1
6 2 5
6 3 10
6 4 8
7 5 4
7 6 10
8 4 5
8 6 7
9 0 5
9 1 5
9 3 3
9 5 3
10 3 10
10 4 9
10 9 1
11 1 7
11 3 10
11 4 8
11 7 10
11 8 11
11 9 10
12 0 3
12 1 11
12 3 11
12 5 8
12 8 3
12 10 6
13 0 2
13 1 1
13 4 9
13 5 4
13 9 11
13 11 3
14 1 2
14 2 5
14 5 3
14 6 1
14 7 1
14 8 9
14 9 4
14 10 8
14 12 8
14 13 3
